(set-logic HORN)
(declare-datatypes ((Nat_1 0)) (((Z_0 ) (S_0 (unS_0 Nat_1)))))
(declare-fun diseqNat_0 (Nat_1 Nat_1) Bool)
(declare-fun unS_1 (Nat_1 Nat_1) Bool)
(declare-fun isZ_0 (Nat_1) Bool)
(declare-fun isS_0 (Nat_1) Bool)
(assert (forall ((x_59 Nat_1) (x_58 Nat_1))
	(=> (= x_59 (S_0 x_58))
	    (unS_1 x_58 x_59))))
(assert (isZ_0 Z_0))
(assert (forall ((x_60 Nat_1))
	(isS_0 (S_0 x_60))))
(assert (forall ((x_61 Nat_1))
	(diseqNat_0 Z_0 (S_0 x_61))))
(assert (forall ((x_62 Nat_1))
	(diseqNat_0 (S_0 x_62) Z_0)))
(assert (forall ((x_63 Nat_1) (x_64 Nat_1))
	(=> (diseqNat_0 x_63 x_64)
	    (diseqNat_0 (S_0 x_63) (S_0 x_64)))))
(declare-fun add_0 (Nat_1 Nat_1 Nat_1) Bool)
(declare-fun minus_0 (Nat_1 Nat_1 Nat_1) Bool)
(declare-fun le_0 (Nat_1 Nat_1) Bool)
(declare-fun ge_0 (Nat_1 Nat_1) Bool)
(declare-fun lt_0 (Nat_1 Nat_1) Bool)
(declare-fun gt_0 (Nat_1 Nat_1) Bool)
(declare-fun mult_0 (Nat_1 Nat_1 Nat_1) Bool)
(declare-fun div_0 (Nat_1 Nat_1 Nat_1) Bool)
(declare-fun mod_0 (Nat_1 Nat_1 Nat_1) Bool)
(assert (forall ((y_9 Nat_1))
	(add_0 y_9 Z_0 y_9)))
(assert (forall ((x_56 Nat_1) (y_9 Nat_1) (r_0 Nat_1))
	(=> (add_0 r_0 x_56 y_9)
	    (add_0 (S_0 r_0) (S_0 x_56) y_9))))
(assert (forall ((y_9 Nat_1))
	(minus_0 Z_0 Z_0 y_9)))
(assert (forall ((x_56 Nat_1) (y_9 Nat_1) (r_0 Nat_1))
	(=> (minus_0 r_0 x_56 y_9)
	    (minus_0 (S_0 r_0) (S_0 x_56) y_9))))
(assert (forall ((y_9 Nat_1))
	(le_0 Z_0 y_9)))
(assert (forall ((x_56 Nat_1) (y_9 Nat_1))
	(=> (le_0 x_56 y_9)
	    (le_0 (S_0 x_56) (S_0 y_9)))))
(assert (forall ((y_9 Nat_1))
	(ge_0 y_9 Z_0)))
(assert (forall ((x_56 Nat_1) (y_9 Nat_1))
	(=> (ge_0 x_56 y_9)
	    (ge_0 (S_0 x_56) (S_0 y_9)))))
(assert (forall ((y_9 Nat_1))
	(lt_0 Z_0 (S_0 y_9))))
(assert (forall ((x_56 Nat_1) (y_9 Nat_1))
	(=> (lt_0 x_56 y_9)
	    (lt_0 (S_0 x_56) (S_0 y_9)))))
(assert (forall ((y_9 Nat_1))
	(gt_0 (S_0 y_9) Z_0)))
(assert (forall ((x_56 Nat_1) (y_9 Nat_1))
	(=> (gt_0 x_56 y_9)
	    (gt_0 (S_0 x_56) (S_0 y_9)))))
(assert (forall ((y_9 Nat_1))
	(mult_0 Z_0 Z_0 y_9)))
(assert (forall ((x_56 Nat_1) (y_9 Nat_1) (r_0 Nat_1) (z_7 Nat_1))
	(=>	(and (mult_0 r_0 x_56 y_9)
			(add_0 z_7 r_0 y_9))
		(mult_0 z_7 (S_0 x_56) y_9))))
(assert (forall ((x_56 Nat_1) (y_9 Nat_1))
	(=> (lt_0 x_56 y_9)
	    (div_0 Z_0 x_56 y_9))))
(assert (forall ((x_56 Nat_1) (y_9 Nat_1) (r_0 Nat_1) (z_7 Nat_1))
	(=>	(and (ge_0 x_56 y_9)
			(minus_0 z_7 x_56 y_9)
			(div_0 r_0 z_7 y_9))
		(div_0 (S_0 r_0) x_56 y_9))))
(assert (forall ((x_56 Nat_1) (y_9 Nat_1))
	(=> (lt_0 x_56 y_9)
	    (mod_0 x_56 x_56 y_9))))
(assert (forall ((x_56 Nat_1) (y_9 Nat_1) (r_0 Nat_1) (z_7 Nat_1))
	(=>	(and (ge_0 x_56 y_9)
			(minus_0 z_7 x_56 y_9)
			(mod_0 r_0 z_7 y_9))
		(mod_0 r_0 x_56 y_9))))
(declare-datatypes ((Nat_0 0)) (((zero_0 ) (succ_0 (p_0 Nat_0)))))
(declare-fun diseqNat_1 (Nat_0 Nat_0) Bool)
(declare-fun p_1 (Nat_0 Nat_0) Bool)
(declare-fun iszero_0 (Nat_0) Bool)
(declare-fun issucc_0 (Nat_0) Bool)
(assert (forall ((x_67 Nat_0) (x_66 Nat_0))
	(=> (= x_67 (succ_0 x_66))
	    (p_1 x_66 x_67))))
(assert (iszero_0 zero_0))
(assert (forall ((x_68 Nat_0))
	(issucc_0 (succ_0 x_68))))
(assert (forall ((x_69 Nat_0))
	(diseqNat_1 zero_0 (succ_0 x_69))))
(assert (forall ((x_70 Nat_0))
	(diseqNat_1 (succ_0 x_70) zero_0)))
(assert (forall ((x_71 Nat_0) (x_72 Nat_0))
	(=> (diseqNat_1 x_71 x_72)
	    (diseqNat_1 (succ_0 x_71) (succ_0 x_72)))))
(declare-fun plus_0 (Nat_0 Nat_0 Nat_0) Bool)
(assert (forall ((x_0 Nat_0) (y_0 Nat_0) (z_0 Nat_0) (x_16 Nat_0) (x_17 Nat_0))
	(=>	(and (= x_16 (succ_0 x_17))
			(plus_0 x_17 z_0 y_0)
			(= x_0 (succ_0 z_0)))
		(plus_0 x_16 x_0 y_0))))
(assert (forall ((x_0 Nat_0) (y_0 Nat_0) (x_18 Nat_0))
	(=>	(and (= x_18 y_0)
			(= x_0 zero_0))
		(plus_0 x_18 x_0 y_0))))
(declare-fun times_0 (Nat_0 Nat_0 Nat_0) Bool)
(assert (forall ((x_1 Nat_0) (y_1 Nat_0) (z_1 Nat_0) (x_19 Nat_0) (x_20 Nat_0) (x_21 Nat_0))
	(=>	(and (= x_19 x_21)
			(times_0 x_20 z_1 y_1)
			(plus_0 x_21 y_1 x_20)
			(= x_1 (succ_0 z_1)))
		(times_0 x_19 x_1 y_1))))
(assert (forall ((x_1 Nat_0) (y_1 Nat_0) (x_22 Nat_0))
	(=>	(and (= x_22 zero_0)
			(= x_1 zero_0))
		(times_0 x_22 x_1 y_1))))
(declare-fun formulapow_0 (Nat_0 Nat_0 Nat_0) Bool)
(assert (forall ((x_2 Nat_0) (y_2 Nat_0) (z_2 Nat_0) (x_23 Nat_0) (x_24 Nat_0) (x_25 Nat_0))
	(=>	(and (= x_23 x_25)
			(formulapow_0 x_24 x_2 z_2)
			(times_0 x_25 x_2 x_24)
			(= y_2 (succ_0 z_2)))
		(formulapow_0 x_23 x_2 y_2))))
(assert (forall ((x_2 Nat_0) (y_2 Nat_0) (x_26 Nat_0))
	(=>	(and (= x_26 (succ_0 zero_0))
			(= y_2 zero_0))
		(formulapow_0 x_26 x_2 y_2))))
(assert (forall ((x_3 Nat_0) (x_27 Nat_0))
	(=>	(and (diseqNat_1 x_27 (succ_0 zero_0))
			(formulapow_0 x_27 (succ_0 zero_0) x_3))
		false)))
(assert (forall ((x_4 Nat_0) (y_3 Nat_0) (z_3 Nat_0) (x_28 Nat_0) (x_29 Nat_0) (x_30 Nat_0) (x_31 Nat_0))
	(=>	(and (diseqNat_1 x_29 x_31)
			(times_0 x_28 y_3 z_3)
			(times_0 x_29 x_4 x_28)
			(times_0 x_30 x_4 y_3)
			(times_0 x_31 x_30 z_3))
		false)))
(assert (forall ((x_5 Nat_0) (y_4 Nat_0) (z_4 Nat_0) (x_32 Nat_0) (x_33 Nat_0) (x_34 Nat_0) (x_35 Nat_0))
	(=>	(and (diseqNat_1 x_33 x_35)
			(plus_0 x_32 y_4 z_4)
			(plus_0 x_33 x_5 x_32)
			(plus_0 x_34 x_5 y_4)
			(plus_0 x_35 x_34 z_4))
		false)))
(assert (forall ((x_6 Nat_0) (y_5 Nat_0) (x_36 Nat_0) (x_37 Nat_0))
	(=>	(and (diseqNat_1 x_36 x_37)
			(times_0 x_36 x_6 y_5)
			(times_0 x_37 y_5 x_6))
		false)))
(assert (forall ((x_7 Nat_0) (y_6 Nat_0) (x_38 Nat_0) (x_39 Nat_0))
	(=>	(and (diseqNat_1 x_38 x_39)
			(plus_0 x_38 x_7 y_6)
			(plus_0 x_39 y_6 x_7))
		false)))
(assert (forall ((x_8 Nat_0) (y_7 Nat_0) (z_5 Nat_0) (x_40 Nat_0) (x_41 Nat_0) (x_42 Nat_0) (x_43 Nat_0) (x_44 Nat_0))
	(=>	(and (diseqNat_1 x_41 x_44)
			(plus_0 x_40 y_7 z_5)
			(times_0 x_41 x_8 x_40)
			(times_0 x_42 x_8 y_7)
			(times_0 x_43 x_8 z_5)
			(plus_0 x_44 x_42 x_43))
		false)))
(assert (forall ((x_9 Nat_0) (y_8 Nat_0) (z_6 Nat_0) (x_45 Nat_0) (x_46 Nat_0) (x_47 Nat_0) (x_48 Nat_0) (x_49 Nat_0))
	(=>	(and (diseqNat_1 x_46 x_49)
			(plus_0 x_45 x_9 y_8)
			(times_0 x_46 x_45 z_6)
			(times_0 x_47 x_9 z_6)
			(times_0 x_48 y_8 z_6)
			(plus_0 x_49 x_47 x_48))
		false)))
(assert (forall ((x_10 Nat_0) (x_50 Nat_0))
	(=>	(and (diseqNat_1 x_50 x_10)
			(times_0 x_50 x_10 (succ_0 zero_0)))
		false)))
(assert (forall ((x_11 Nat_0) (x_51 Nat_0))
	(=>	(and (diseqNat_1 x_51 x_11)
			(times_0 x_51 (succ_0 zero_0) x_11))
		false)))
(assert (forall ((x_12 Nat_0) (x_52 Nat_0))
	(=>	(and (diseqNat_1 x_52 x_12)
			(plus_0 x_52 x_12 zero_0))
		false)))
(assert (forall ((x_13 Nat_0) (x_53 Nat_0))
	(=>	(and (diseqNat_1 x_53 x_13)
			(plus_0 x_53 zero_0 x_13))
		false)))
(assert (forall ((x_14 Nat_0) (x_54 Nat_0))
	(=>	(and (diseqNat_1 x_54 zero_0)
			(times_0 x_54 x_14 zero_0))
		false)))
(assert (forall ((x_15 Nat_0) (x_55 Nat_0))
	(=>	(and (diseqNat_1 x_55 zero_0)
			(times_0 x_55 zero_0 x_15))
		false)))
(check-sat)
